NAME : OMNETRUN
COMMENT : 524.61
TYPE : CVRP
DIMENSION : 21
EDGE_WEIGHT_TYPE : EUC_2D
CAPACITY : 21
NODE_COORD_SECTION
1 0.107093 -0.77924
2 242.946 -499.514
3 55.533 -1252.42
4 102.32 -3228.25
5 168.867 -3890.54
6 17.5589 -4285.29
7 212.7 -4581.48
8 37.0167 -5754.49
9 331.44 -8.26551
10 329.624 -948.057
11 393.346 -1590.05
12 364.136 -2181.39
13 441.857 -4883.65
14 356.083 -5247.26
15 363.616 -5931.49
16 733.024 -120.35
17 572.828 -631.231
18 729.986 -1411.57
19 513.024 -3024.62
20 620.106 -3595.53
21 553.724 -4210.18
DEMAND_SECTION
1 0
2 1
3 1
4 1
5 1
6 1
7 1
8 1
9 1
10 1
11 1
12 1
13 1
14 1
15 1
16 1
17 1
18 1
19 1
20 1
21 1
DEPOT_SECTION
1
-1
EOF
